4 
5  00 23 46 
6  01 16 31 46 
7  01 16 31 46 
8  01 16 31 46 
9  01 16 31 46 
10  01 16 31 46 
11  01 16 31 46 
12  01 16 31 46 
13  02 17 32 47 59 
14  14 29 43 58 
15  13 28 43 58 
16  13 28 43 58 
17  13 28 43 
18  01 16 35 52 
19  06 21 36 51 
20  06 21 36 51 
21  08 23 38 53 
22  07 22 37 52 
23  16 
0 
